(set-logic QF_LRA)
(declare-fun T1 () Real )
(declare-fun T2 () Real )
(declare-fun T3 () Real )
(declare-fun T4 () Real )
(declare-fun T5 () Real )
(declare-fun T6 () Real )
(declare-fun T7 () Real )
(declare-fun T8 () Real )
(declare-fun Z () Real )
(declare-fun k () Real )
(assert (let
(( $goal (>= Z k) ))
(let
((
$phi ( and 
(or ( <= ( + T1 31 ) T2 ) ( <= ( + T2 48 ) T1 ) )
(or ( <= ( + T1 131 )  ( + T2 48 ) ) ( <= ( + T2 59 )( + T1 31 ) ) )
(or ( <= ( + T1 145 )  ( + T2 59 ) ) ( <= ( + T2 84 )( + T1 131 ) ) )
(or ( <= ( + T1 232 )  ( + T2 84 ) ) ( <= ( + T2 102 )( + T1 145 ) ) )
(or ( <= ( + T1 262 )  ( + T2 102 ) ) ( <= ( + T2 110 )( + T1 232 ) ) )
(or ( <= ( + T1 279 )  ( + T2 110 ) ) ( <= ( + T2 118 )( + T1 262 ) ) )
(or ( <= ( + T1 316 )  ( + T2 118 ) ) ( <= ( + T2 162 )( + T1 279 ) ) )
(or ( <= ( + T1 400 )  ( + T2 162 ) ) ( <= ( + T2 212 )( + T1 316 ) ) )
(or ( <= ( + T1 455 )  ( + T2 212 ) ) ( <= ( + T2 215 )( + T1 400 ) ) )
(or ( <= ( + T1 494 )  ( + T2 215 ) ) ( <= ( + T2 219 )( + T1 455 ) ) )
(or ( <= ( + T1 31 ) T3 ) ( <= ( + T3 15 ) T1 ) )
(or ( <= ( + T1 131 )  ( + T3 15 ) ) ( <= ( + T3 96 )( + T1 31 ) ) )
(or ( <= ( + T1 145 )  ( + T3 96 ) ) ( <= ( + T3 129 )( + T1 131 ) ) )
(or ( <= ( + T1 232 )  ( + T3 129 ) ) ( <= ( + T3 171 )( + T1 145 ) ) )
(or ( <= ( + T1 262 )  ( + T3 171 ) ) ( <= ( + T3 187 )( + T1 232 ) ) )
(or ( <= ( + T1 279 )  ( + T3 187 ) ) ( <= ( + T3 248 )( + T1 262 ) ) )
(or ( <= ( + T1 316 )  ( + T3 248 ) ) ( <= ( + T3 281 )( + T1 279 ) ) )
(or ( <= ( + T1 400 )  ( + T3 281 ) ) ( <= ( + T3 297 )( + T1 316 ) ) )
(or ( <= ( + T1 455 )  ( + T3 297 ) ) ( <= ( + T3 361 )( + T1 400 ) ) )
(or ( <= ( + T1 494 )  ( + T3 361 ) ) ( <= ( + T3 423 )( + T1 455 ) ) )
(or ( <= ( + T1 31 ) T4 ) ( <= ( + T4 95 ) T1 ) )
(or ( <= ( + T1 131 )  ( + T4 95 ) ) ( <= ( + T4 141 )( + T1 31 ) ) )
(or ( <= ( + T1 145 )  ( + T4 141 ) ) ( <= ( + T4 154 )( + T1 131 ) ) )
(or ( <= ( + T1 232 )  ( + T4 154 ) ) ( <= ( + T4 215 )( + T1 145 ) ) )
(or ( <= ( + T1 262 )  ( + T4 215 ) ) ( <= ( + T4 247 )( + T1 232 ) ) )
(or ( <= ( + T1 279 )  ( + T4 247 ) ) ( <= ( + T4 341 )( + T1 262 ) ) )
(or ( <= ( + T1 316 )  ( + T4 341 ) ) ( <= ( + T4 370 )( + T1 279 ) ) )
(or ( <= ( + T1 400 )  ( + T4 370 ) ) ( <= ( + T4 391 )( + T1 316 ) ) )
(or ( <= ( + T1 455 )  ( + T4 391 ) ) ( <= ( + T4 468 )( + T1 400 ) ) )
(or ( <= ( + T1 494 )  ( + T4 468 ) ) ( <= ( + T4 503 )( + T1 455 ) ) )
(or ( <= ( + T1 31 ) T5 ) ( <= ( + T5 11 ) T1 ) )
(or ( <= ( + T1 131 )  ( + T5 11 ) ) ( <= ( + T5 87 )( + T1 31 ) ) )
(or ( <= ( + T1 145 )  ( + T5 87 ) ) ( <= ( + T5 184 )( + T1 131 ) ) )
(or ( <= ( + T1 232 )  ( + T5 184 ) ) ( <= ( + T5 271 )( + T1 145 ) ) )
(or ( <= ( + T1 262 )  ( + T5 271 ) ) ( <= ( + T5 316 )( + T1 232 ) ) )
(or ( <= ( + T1 279 )  ( + T5 316 ) ) ( <= ( + T5 321 )( + T1 262 ) ) )
(or ( <= ( + T1 316 )  ( + T5 321 ) ) ( <= ( + T5 415 )( + T1 279 ) ) )
(or ( <= ( + T1 400 )  ( + T5 415 ) ) ( <= ( + T5 504 )( + T1 316 ) ) )
(or ( <= ( + T1 455 )  ( + T5 504 ) ) ( <= ( + T5 558 )( + T1 400 ) ) )
(or ( <= ( + T1 494 )  ( + T5 558 ) ) ( <= ( + T5 607 )( + T1 455 ) ) )
(or ( <= ( + T1 31 ) T6 ) ( <= ( + T6 44 ) T1 ) )
(or ( <= ( + T1 131 )  ( + T6 44 ) ) ( <= ( + T6 113 )( + T1 31 ) ) )
(or ( <= ( + T1 145 )  ( + T6 113 ) ) ( <= ( + T6 142 )( + T1 131 ) ) )
(or ( <= ( + T1 232 )  ( + T6 142 ) ) ( <= ( + T6 219 )( + T1 145 ) ) )
(or ( <= ( + T1 262 )  ( + T6 219 ) ) ( <= ( + T6 229 )( + T1 232 ) ) )
(or ( <= ( + T1 279 )  ( + T6 229 ) ) ( <= ( + T6 274 )( + T1 262 ) ) )
(or ( <= ( + T1 316 )  ( + T6 274 ) ) ( <= ( + T6 363 )( + T1 279 ) ) )
(or ( <= ( + T1 400 )  ( + T6 363 ) ) ( <= ( + T6 457 )( + T1 316 ) ) )
(or ( <= ( + T1 455 )  ( + T6 457 ) ) ( <= ( + T6 469 )( + T1 400 ) ) )
(or ( <= ( + T1 494 )  ( + T6 469 ) ) ( <= ( + T6 473 )( + T1 455 ) ) )
(or ( <= ( + T1 31 ) T7 ) ( <= ( + T7 7 ) T1 ) )
(or ( <= ( + T1 131 )  ( + T7 7 ) ) ( <= ( + T7 14 )( + T1 31 ) ) )
(or ( <= ( + T1 145 )  ( + T7 14 ) ) ( <= ( + T7 63 )( + T1 131 ) ) )
(or ( <= ( + T1 232 )  ( + T7 63 ) ) ( <= ( + T7 134 )( + T1 145 ) ) )
(or ( <= ( + T1 262 )  ( + T7 134 ) ) ( <= ( + T7 153 )( + T1 232 ) ) )
(or ( <= ( + T1 279 )  ( + T7 153 ) ) ( <= ( + T7 234 )( + T1 262 ) ) )
(or ( <= ( + T1 316 )  ( + T7 234 ) ) ( <= ( + T7 298 )( + T1 279 ) ) )
(or ( <= ( + T1 400 )  ( + T7 298 ) ) ( <= ( + T7 397 )( + T1 316 ) ) )
(or ( <= ( + T1 455 )  ( + T7 397 ) ) ( <= ( + T7 450 )( + T1 400 ) ) )
(or ( <= ( + T1 494 )  ( + T7 450 ) ) ( <= ( + T7 542 )( + T1 455 ) ) )
(or ( <= ( + T1 31 ) T8 ) ( <= ( + T8 33 ) T1 ) )
(or ( <= ( + T1 131 )  ( + T8 33 ) ) ( <= ( + T8 96 )( + T1 31 ) ) )
(or ( <= ( + T1 145 )  ( + T8 96 ) ) ( <= ( + T8 163 )( + T1 131 ) ) )
(or ( <= ( + T1 232 )  ( + T8 163 ) ) ( <= ( + T8 193 )( + T1 145 ) ) )
(or ( <= ( + T1 262 )  ( + T8 193 ) ) ( <= ( + T8 242 )( + T1 232 ) ) )
(or ( <= ( + T1 279 )  ( + T8 242 ) ) ( <= ( + T8 254 )( + T1 262 ) ) )
(or ( <= ( + T1 316 )  ( + T8 254 ) ) ( <= ( + T8 288 )( + T1 279 ) ) )
(or ( <= ( + T1 400 )  ( + T8 288 ) ) ( <= ( + T8 383 )( + T1 316 ) ) )
(or ( <= ( + T1 455 )  ( + T8 383 ) ) ( <= ( + T8 435 )( + T1 400 ) ) )
(or ( <= ( + T1 494 )  ( + T8 435 ) ) ( <= ( + T8 474 )( + T1 455 ) ) )
(or ( <= ( + T2 48 ) T3 ) ( <= ( + T3 15 ) T2 ) )
(or ( <= ( + T2 59 )  ( + T3 15 ) ) ( <= ( + T3 96 )( + T2 48 ) ) )
(or ( <= ( + T2 84 )  ( + T3 96 ) ) ( <= ( + T3 129 )( + T2 59 ) ) )
(or ( <= ( + T2 102 )  ( + T3 129 ) ) ( <= ( + T3 171 )( + T2 84 ) ) )
(or ( <= ( + T2 110 )  ( + T3 171 ) ) ( <= ( + T3 187 )( + T2 102 ) ) )
(or ( <= ( + T2 118 )  ( + T3 187 ) ) ( <= ( + T3 248 )( + T2 110 ) ) )
(or ( <= ( + T2 162 )  ( + T3 248 ) ) ( <= ( + T3 281 )( + T2 118 ) ) )
(or ( <= ( + T2 212 )  ( + T3 281 ) ) ( <= ( + T3 297 )( + T2 162 ) ) )
(or ( <= ( + T2 215 )  ( + T3 297 ) ) ( <= ( + T3 361 )( + T2 212 ) ) )
(or ( <= ( + T2 219 )  ( + T3 361 ) ) ( <= ( + T3 423 )( + T2 215 ) ) )
(or ( <= ( + T2 48 ) T4 ) ( <= ( + T4 95 ) T2 ) )
(or ( <= ( + T2 59 )  ( + T4 95 ) ) ( <= ( + T4 141 )( + T2 48 ) ) )
(or ( <= ( + T2 84 )  ( + T4 141 ) ) ( <= ( + T4 154 )( + T2 59 ) ) )
(or ( <= ( + T2 102 )  ( + T4 154 ) ) ( <= ( + T4 215 )( + T2 84 ) ) )
(or ( <= ( + T2 110 )  ( + T4 215 ) ) ( <= ( + T4 247 )( + T2 102 ) ) )
(or ( <= ( + T2 118 )  ( + T4 247 ) ) ( <= ( + T4 341 )( + T2 110 ) ) )
(or ( <= ( + T2 162 )  ( + T4 341 ) ) ( <= ( + T4 370 )( + T2 118 ) ) )
(or ( <= ( + T2 212 )  ( + T4 370 ) ) ( <= ( + T4 391 )( + T2 162 ) ) )
(or ( <= ( + T2 215 )  ( + T4 391 ) ) ( <= ( + T4 468 )( + T2 212 ) ) )
(or ( <= ( + T2 219 )  ( + T4 468 ) ) ( <= ( + T4 503 )( + T2 215 ) ) )
(or ( <= ( + T2 48 ) T5 ) ( <= ( + T5 11 ) T2 ) )
(or ( <= ( + T2 59 )  ( + T5 11 ) ) ( <= ( + T5 87 )( + T2 48 ) ) )
(or ( <= ( + T2 84 )  ( + T5 87 ) ) ( <= ( + T5 184 )( + T2 59 ) ) )
(or ( <= ( + T2 102 )  ( + T5 184 ) ) ( <= ( + T5 271 )( + T2 84 ) ) )
(or ( <= ( + T2 110 )  ( + T5 271 ) ) ( <= ( + T5 316 )( + T2 102 ) ) )
(or ( <= ( + T2 118 )  ( + T5 316 ) ) ( <= ( + T5 321 )( + T2 110 ) ) )
(or ( <= ( + T2 162 )  ( + T5 321 ) ) ( <= ( + T5 415 )( + T2 118 ) ) )
(or ( <= ( + T2 212 )  ( + T5 415 ) ) ( <= ( + T5 504 )( + T2 162 ) ) )
(or ( <= ( + T2 215 )  ( + T5 504 ) ) ( <= ( + T5 558 )( + T2 212 ) ) )
(or ( <= ( + T2 219 )  ( + T5 558 ) ) ( <= ( + T5 607 )( + T2 215 ) ) )
(or ( <= ( + T2 48 ) T6 ) ( <= ( + T6 44 ) T2 ) )
(or ( <= ( + T2 59 )  ( + T6 44 ) ) ( <= ( + T6 113 )( + T2 48 ) ) )
(or ( <= ( + T2 84 )  ( + T6 113 ) ) ( <= ( + T6 142 )( + T2 59 ) ) )
(or ( <= ( + T2 102 )  ( + T6 142 ) ) ( <= ( + T6 219 )( + T2 84 ) ) )
(or ( <= ( + T2 110 )  ( + T6 219 ) ) ( <= ( + T6 229 )( + T2 102 ) ) )
(or ( <= ( + T2 118 )  ( + T6 229 ) ) ( <= ( + T6 274 )( + T2 110 ) ) )
(or ( <= ( + T2 162 )  ( + T6 274 ) ) ( <= ( + T6 363 )( + T2 118 ) ) )
(or ( <= ( + T2 212 )  ( + T6 363 ) ) ( <= ( + T6 457 )( + T2 162 ) ) )
(or ( <= ( + T2 215 )  ( + T6 457 ) ) ( <= ( + T6 469 )( + T2 212 ) ) )
(or ( <= ( + T2 219 )  ( + T6 469 ) ) ( <= ( + T6 473 )( + T2 215 ) ) )
(or ( <= ( + T2 48 ) T7 ) ( <= ( + T7 7 ) T2 ) )
(or ( <= ( + T2 59 )  ( + T7 7 ) ) ( <= ( + T7 14 )( + T2 48 ) ) )
(or ( <= ( + T2 84 )  ( + T7 14 ) ) ( <= ( + T7 63 )( + T2 59 ) ) )
(or ( <= ( + T2 102 )  ( + T7 63 ) ) ( <= ( + T7 134 )( + T2 84 ) ) )
(or ( <= ( + T2 110 )  ( + T7 134 ) ) ( <= ( + T7 153 )( + T2 102 ) ) )
(or ( <= ( + T2 118 )  ( + T7 153 ) ) ( <= ( + T7 234 )( + T2 110 ) ) )
(or ( <= ( + T2 162 )  ( + T7 234 ) ) ( <= ( + T7 298 )( + T2 118 ) ) )
(or ( <= ( + T2 212 )  ( + T7 298 ) ) ( <= ( + T7 397 )( + T2 162 ) ) )
(or ( <= ( + T2 215 )  ( + T7 397 ) ) ( <= ( + T7 450 )( + T2 212 ) ) )
(or ( <= ( + T2 219 )  ( + T7 450 ) ) ( <= ( + T7 542 )( + T2 215 ) ) )
(or ( <= ( + T2 48 ) T8 ) ( <= ( + T8 33 ) T2 ) )
(or ( <= ( + T2 59 )  ( + T8 33 ) ) ( <= ( + T8 96 )( + T2 48 ) ) )
(or ( <= ( + T2 84 )  ( + T8 96 ) ) ( <= ( + T8 163 )( + T2 59 ) ) )
(or ( <= ( + T2 102 )  ( + T8 163 ) ) ( <= ( + T8 193 )( + T2 84 ) ) )
(or ( <= ( + T2 110 )  ( + T8 193 ) ) ( <= ( + T8 242 )( + T2 102 ) ) )
(or ( <= ( + T2 118 )  ( + T8 242 ) ) ( <= ( + T8 254 )( + T2 110 ) ) )
(or ( <= ( + T2 162 )  ( + T8 254 ) ) ( <= ( + T8 288 )( + T2 118 ) ) )
(or ( <= ( + T2 212 )  ( + T8 288 ) ) ( <= ( + T8 383 )( + T2 162 ) ) )
(or ( <= ( + T2 215 )  ( + T8 383 ) ) ( <= ( + T8 435 )( + T2 212 ) ) )
(or ( <= ( + T2 219 )  ( + T8 435 ) ) ( <= ( + T8 474 )( + T2 215 ) ) )
(or ( <= ( + T3 15 ) T4 ) ( <= ( + T4 95 ) T3 ) )
(or ( <= ( + T3 96 )  ( + T4 95 ) ) ( <= ( + T4 141 )( + T3 15 ) ) )
(or ( <= ( + T3 129 )  ( + T4 141 ) ) ( <= ( + T4 154 )( + T3 96 ) ) )
(or ( <= ( + T3 171 )  ( + T4 154 ) ) ( <= ( + T4 215 )( + T3 129 ) ) )
(or ( <= ( + T3 187 )  ( + T4 215 ) ) ( <= ( + T4 247 )( + T3 171 ) ) )
(or ( <= ( + T3 248 )  ( + T4 247 ) ) ( <= ( + T4 341 )( + T3 187 ) ) )
(or ( <= ( + T3 281 )  ( + T4 341 ) ) ( <= ( + T4 370 )( + T3 248 ) ) )
(or ( <= ( + T3 297 )  ( + T4 370 ) ) ( <= ( + T4 391 )( + T3 281 ) ) )
(or ( <= ( + T3 361 )  ( + T4 391 ) ) ( <= ( + T4 468 )( + T3 297 ) ) )
(or ( <= ( + T3 423 )  ( + T4 468 ) ) ( <= ( + T4 503 )( + T3 361 ) ) )
(or ( <= ( + T3 15 ) T5 ) ( <= ( + T5 11 ) T3 ) )
(or ( <= ( + T3 96 )  ( + T5 11 ) ) ( <= ( + T5 87 )( + T3 15 ) ) )
(or ( <= ( + T3 129 )  ( + T5 87 ) ) ( <= ( + T5 184 )( + T3 96 ) ) )
(or ( <= ( + T3 171 )  ( + T5 184 ) ) ( <= ( + T5 271 )( + T3 129 ) ) )
(or ( <= ( + T3 187 )  ( + T5 271 ) ) ( <= ( + T5 316 )( + T3 171 ) ) )
(or ( <= ( + T3 248 )  ( + T5 316 ) ) ( <= ( + T5 321 )( + T3 187 ) ) )
(or ( <= ( + T3 281 )  ( + T5 321 ) ) ( <= ( + T5 415 )( + T3 248 ) ) )
(or ( <= ( + T3 297 )  ( + T5 415 ) ) ( <= ( + T5 504 )( + T3 281 ) ) )
(or ( <= ( + T3 361 )  ( + T5 504 ) ) ( <= ( + T5 558 )( + T3 297 ) ) )
(or ( <= ( + T3 423 )  ( + T5 558 ) ) ( <= ( + T5 607 )( + T3 361 ) ) )
(or ( <= ( + T3 15 ) T6 ) ( <= ( + T6 44 ) T3 ) )
(or ( <= ( + T3 96 )  ( + T6 44 ) ) ( <= ( + T6 113 )( + T3 15 ) ) )
(or ( <= ( + T3 129 )  ( + T6 113 ) ) ( <= ( + T6 142 )( + T3 96 ) ) )
(or ( <= ( + T3 171 )  ( + T6 142 ) ) ( <= ( + T6 219 )( + T3 129 ) ) )
(or ( <= ( + T3 187 )  ( + T6 219 ) ) ( <= ( + T6 229 )( + T3 171 ) ) )
(or ( <= ( + T3 248 )  ( + T6 229 ) ) ( <= ( + T6 274 )( + T3 187 ) ) )
(or ( <= ( + T3 281 )  ( + T6 274 ) ) ( <= ( + T6 363 )( + T3 248 ) ) )
(or ( <= ( + T3 297 )  ( + T6 363 ) ) ( <= ( + T6 457 )( + T3 281 ) ) )
(or ( <= ( + T3 361 )  ( + T6 457 ) ) ( <= ( + T6 469 )( + T3 297 ) ) )
(or ( <= ( + T3 423 )  ( + T6 469 ) ) ( <= ( + T6 473 )( + T3 361 ) ) )
(or ( <= ( + T3 15 ) T7 ) ( <= ( + T7 7 ) T3 ) )
(or ( <= ( + T3 96 )  ( + T7 7 ) ) ( <= ( + T7 14 )( + T3 15 ) ) )
(or ( <= ( + T3 129 )  ( + T7 14 ) ) ( <= ( + T7 63 )( + T3 96 ) ) )
(or ( <= ( + T3 171 )  ( + T7 63 ) ) ( <= ( + T7 134 )( + T3 129 ) ) )
(or ( <= ( + T3 187 )  ( + T7 134 ) ) ( <= ( + T7 153 )( + T3 171 ) ) )
(or ( <= ( + T3 248 )  ( + T7 153 ) ) ( <= ( + T7 234 )( + T3 187 ) ) )
(or ( <= ( + T3 281 )  ( + T7 234 ) ) ( <= ( + T7 298 )( + T3 248 ) ) )
(or ( <= ( + T3 297 )  ( + T7 298 ) ) ( <= ( + T7 397 )( + T3 281 ) ) )
(or ( <= ( + T3 361 )  ( + T7 397 ) ) ( <= ( + T7 450 )( + T3 297 ) ) )
(or ( <= ( + T3 423 )  ( + T7 450 ) ) ( <= ( + T7 542 )( + T3 361 ) ) )
(or ( <= ( + T3 15 ) T8 ) ( <= ( + T8 33 ) T3 ) )
(or ( <= ( + T3 96 )  ( + T8 33 ) ) ( <= ( + T8 96 )( + T3 15 ) ) )
(or ( <= ( + T3 129 )  ( + T8 96 ) ) ( <= ( + T8 163 )( + T3 96 ) ) )
(or ( <= ( + T3 171 )  ( + T8 163 ) ) ( <= ( + T8 193 )( + T3 129 ) ) )
(or ( <= ( + T3 187 )  ( + T8 193 ) ) ( <= ( + T8 242 )( + T3 171 ) ) )
(or ( <= ( + T3 248 )  ( + T8 242 ) ) ( <= ( + T8 254 )( + T3 187 ) ) )
(or ( <= ( + T3 281 )  ( + T8 254 ) ) ( <= ( + T8 288 )( + T3 248 ) ) )
(or ( <= ( + T3 297 )  ( + T8 288 ) ) ( <= ( + T8 383 )( + T3 281 ) ) )
(or ( <= ( + T3 361 )  ( + T8 383 ) ) ( <= ( + T8 435 )( + T3 297 ) ) )
(or ( <= ( + T3 423 )  ( + T8 435 ) ) ( <= ( + T8 474 )( + T3 361 ) ) )
(or ( <= ( + T4 95 ) T5 ) ( <= ( + T5 11 ) T4 ) )
(or ( <= ( + T4 141 )  ( + T5 11 ) ) ( <= ( + T5 87 )( + T4 95 ) ) )
(or ( <= ( + T4 154 )  ( + T5 87 ) ) ( <= ( + T5 184 )( + T4 141 ) ) )
(or ( <= ( + T4 215 )  ( + T5 184 ) ) ( <= ( + T5 271 )( + T4 154 ) ) )
(or ( <= ( + T4 247 )  ( + T5 271 ) ) ( <= ( + T5 316 )( + T4 215 ) ) )
(or ( <= ( + T4 341 )  ( + T5 316 ) ) ( <= ( + T5 321 )( + T4 247 ) ) )
(or ( <= ( + T4 370 )  ( + T5 321 ) ) ( <= ( + T5 415 )( + T4 341 ) ) )
(or ( <= ( + T4 391 )  ( + T5 415 ) ) ( <= ( + T5 504 )( + T4 370 ) ) )
(or ( <= ( + T4 468 )  ( + T5 504 ) ) ( <= ( + T5 558 )( + T4 391 ) ) )
(or ( <= ( + T4 503 )  ( + T5 558 ) ) ( <= ( + T5 607 )( + T4 468 ) ) )
(or ( <= ( + T4 95 ) T6 ) ( <= ( + T6 44 ) T4 ) )
(or ( <= ( + T4 141 )  ( + T6 44 ) ) ( <= ( + T6 113 )( + T4 95 ) ) )
(or ( <= ( + T4 154 )  ( + T6 113 ) ) ( <= ( + T6 142 )( + T4 141 ) ) )
(or ( <= ( + T4 215 )  ( + T6 142 ) ) ( <= ( + T6 219 )( + T4 154 ) ) )
(or ( <= ( + T4 247 )  ( + T6 219 ) ) ( <= ( + T6 229 )( + T4 215 ) ) )
(or ( <= ( + T4 341 )  ( + T6 229 ) ) ( <= ( + T6 274 )( + T4 247 ) ) )
(or ( <= ( + T4 370 )  ( + T6 274 ) ) ( <= ( + T6 363 )( + T4 341 ) ) )
(or ( <= ( + T4 391 )  ( + T6 363 ) ) ( <= ( + T6 457 )( + T4 370 ) ) )
(or ( <= ( + T4 468 )  ( + T6 457 ) ) ( <= ( + T6 469 )( + T4 391 ) ) )
(or ( <= ( + T4 503 )  ( + T6 469 ) ) ( <= ( + T6 473 )( + T4 468 ) ) )
(or ( <= ( + T4 95 ) T7 ) ( <= ( + T7 7 ) T4 ) )
(or ( <= ( + T4 141 )  ( + T7 7 ) ) ( <= ( + T7 14 )( + T4 95 ) ) )
(or ( <= ( + T4 154 )  ( + T7 14 ) ) ( <= ( + T7 63 )( + T4 141 ) ) )
(or ( <= ( + T4 215 )  ( + T7 63 ) ) ( <= ( + T7 134 )( + T4 154 ) ) )
(or ( <= ( + T4 247 )  ( + T7 134 ) ) ( <= ( + T7 153 )( + T4 215 ) ) )
(or ( <= ( + T4 341 )  ( + T7 153 ) ) ( <= ( + T7 234 )( + T4 247 ) ) )
(or ( <= ( + T4 370 )  ( + T7 234 ) ) ( <= ( + T7 298 )( + T4 341 ) ) )
(or ( <= ( + T4 391 )  ( + T7 298 ) ) ( <= ( + T7 397 )( + T4 370 ) ) )
(or ( <= ( + T4 468 )  ( + T7 397 ) ) ( <= ( + T7 450 )( + T4 391 ) ) )
(or ( <= ( + T4 503 )  ( + T7 450 ) ) ( <= ( + T7 542 )( + T4 468 ) ) )
(or ( <= ( + T4 95 ) T8 ) ( <= ( + T8 33 ) T4 ) )
(or ( <= ( + T4 141 )  ( + T8 33 ) ) ( <= ( + T8 96 )( + T4 95 ) ) )
(or ( <= ( + T4 154 )  ( + T8 96 ) ) ( <= ( + T8 163 )( + T4 141 ) ) )
(or ( <= ( + T4 215 )  ( + T8 163 ) ) ( <= ( + T8 193 )( + T4 154 ) ) )
(or ( <= ( + T4 247 )  ( + T8 193 ) ) ( <= ( + T8 242 )( + T4 215 ) ) )
(or ( <= ( + T4 341 )  ( + T8 242 ) ) ( <= ( + T8 254 )( + T4 247 ) ) )
(or ( <= ( + T4 370 )  ( + T8 254 ) ) ( <= ( + T8 288 )( + T4 341 ) ) )
(or ( <= ( + T4 391 )  ( + T8 288 ) ) ( <= ( + T8 383 )( + T4 370 ) ) )
(or ( <= ( + T4 468 )  ( + T8 383 ) ) ( <= ( + T8 435 )( + T4 391 ) ) )
(or ( <= ( + T4 503 )  ( + T8 435 ) ) ( <= ( + T8 474 )( + T4 468 ) ) )
(or ( <= ( + T5 11 ) T6 ) ( <= ( + T6 44 ) T5 ) )
(or ( <= ( + T5 87 )  ( + T6 44 ) ) ( <= ( + T6 113 )( + T5 11 ) ) )
(or ( <= ( + T5 184 )  ( + T6 113 ) ) ( <= ( + T6 142 )( + T5 87 ) ) )
(or ( <= ( + T5 271 )  ( + T6 142 ) ) ( <= ( + T6 219 )( + T5 184 ) ) )
(or ( <= ( + T5 316 )  ( + T6 219 ) ) ( <= ( + T6 229 )( + T5 271 ) ) )
(or ( <= ( + T5 321 )  ( + T6 229 ) ) ( <= ( + T6 274 )( + T5 316 ) ) )
(or ( <= ( + T5 415 )  ( + T6 274 ) ) ( <= ( + T6 363 )( + T5 321 ) ) )
(or ( <= ( + T5 504 )  ( + T6 363 ) ) ( <= ( + T6 457 )( + T5 415 ) ) )
(or ( <= ( + T5 558 )  ( + T6 457 ) ) ( <= ( + T6 469 )( + T5 504 ) ) )
(or ( <= ( + T5 607 )  ( + T6 469 ) ) ( <= ( + T6 473 )( + T5 558 ) ) )
(or ( <= ( + T5 11 ) T7 ) ( <= ( + T7 7 ) T5 ) )
(or ( <= ( + T5 87 )  ( + T7 7 ) ) ( <= ( + T7 14 )( + T5 11 ) ) )
(or ( <= ( + T5 184 )  ( + T7 14 ) ) ( <= ( + T7 63 )( + T5 87 ) ) )
(or ( <= ( + T5 271 )  ( + T7 63 ) ) ( <= ( + T7 134 )( + T5 184 ) ) )
(or ( <= ( + T5 316 )  ( + T7 134 ) ) ( <= ( + T7 153 )( + T5 271 ) ) )
(or ( <= ( + T5 321 )  ( + T7 153 ) ) ( <= ( + T7 234 )( + T5 316 ) ) )
(or ( <= ( + T5 415 )  ( + T7 234 ) ) ( <= ( + T7 298 )( + T5 321 ) ) )
(or ( <= ( + T5 504 )  ( + T7 298 ) ) ( <= ( + T7 397 )( + T5 415 ) ) )
(or ( <= ( + T5 558 )  ( + T7 397 ) ) ( <= ( + T7 450 )( + T5 504 ) ) )
(or ( <= ( + T5 607 )  ( + T7 450 ) ) ( <= ( + T7 542 )( + T5 558 ) ) )
(or ( <= ( + T5 11 ) T8 ) ( <= ( + T8 33 ) T5 ) )
(or ( <= ( + T5 87 )  ( + T8 33 ) ) ( <= ( + T8 96 )( + T5 11 ) ) )
(or ( <= ( + T5 184 )  ( + T8 96 ) ) ( <= ( + T8 163 )( + T5 87 ) ) )
(or ( <= ( + T5 271 )  ( + T8 163 ) ) ( <= ( + T8 193 )( + T5 184 ) ) )
(or ( <= ( + T5 316 )  ( + T8 193 ) ) ( <= ( + T8 242 )( + T5 271 ) ) )
(or ( <= ( + T5 321 )  ( + T8 242 ) ) ( <= ( + T8 254 )( + T5 316 ) ) )
(or ( <= ( + T5 415 )  ( + T8 254 ) ) ( <= ( + T8 288 )( + T5 321 ) ) )
(or ( <= ( + T5 504 )  ( + T8 288 ) ) ( <= ( + T8 383 )( + T5 415 ) ) )
(or ( <= ( + T5 558 )  ( + T8 383 ) ) ( <= ( + T8 435 )( + T5 504 ) ) )
(or ( <= ( + T5 607 )  ( + T8 435 ) ) ( <= ( + T8 474 )( + T5 558 ) ) )
(or ( <= ( + T6 44 ) T7 ) ( <= ( + T7 7 ) T6 ) )
(or ( <= ( + T6 113 )  ( + T7 7 ) ) ( <= ( + T7 14 )( + T6 44 ) ) )
(or ( <= ( + T6 142 )  ( + T7 14 ) ) ( <= ( + T7 63 )( + T6 113 ) ) )
(or ( <= ( + T6 219 )  ( + T7 63 ) ) ( <= ( + T7 134 )( + T6 142 ) ) )
(or ( <= ( + T6 229 )  ( + T7 134 ) ) ( <= ( + T7 153 )( + T6 219 ) ) )
(or ( <= ( + T6 274 )  ( + T7 153 ) ) ( <= ( + T7 234 )( + T6 229 ) ) )
(or ( <= ( + T6 363 )  ( + T7 234 ) ) ( <= ( + T7 298 )( + T6 274 ) ) )
(or ( <= ( + T6 457 )  ( + T7 298 ) ) ( <= ( + T7 397 )( + T6 363 ) ) )
(or ( <= ( + T6 469 )  ( + T7 397 ) ) ( <= ( + T7 450 )( + T6 457 ) ) )
(or ( <= ( + T6 473 )  ( + T7 450 ) ) ( <= ( + T7 542 )( + T6 469 ) ) )
(or ( <= ( + T6 44 ) T8 ) ( <= ( + T8 33 ) T6 ) )
(or ( <= ( + T6 113 )  ( + T8 33 ) ) ( <= ( + T8 96 )( + T6 44 ) ) )
(or ( <= ( + T6 142 )  ( + T8 96 ) ) ( <= ( + T8 163 )( + T6 113 ) ) )
(or ( <= ( + T6 219 )  ( + T8 163 ) ) ( <= ( + T8 193 )( + T6 142 ) ) )
(or ( <= ( + T6 229 )  ( + T8 193 ) ) ( <= ( + T8 242 )( + T6 219 ) ) )
(or ( <= ( + T6 274 )  ( + T8 242 ) ) ( <= ( + T8 254 )( + T6 229 ) ) )
(or ( <= ( + T6 363 )  ( + T8 254 ) ) ( <= ( + T8 288 )( + T6 274 ) ) )
(or ( <= ( + T6 457 )  ( + T8 288 ) ) ( <= ( + T8 383 )( + T6 363 ) ) )
(or ( <= ( + T6 469 )  ( + T8 383 ) ) ( <= ( + T8 435 )( + T6 457 ) ) )
(or ( <= ( + T6 473 )  ( + T8 435 ) ) ( <= ( + T8 474 )( + T6 469 ) ) )
(or ( <= ( + T7 7 ) T8 ) ( <= ( + T8 33 ) T7 ) )
(or ( <= ( + T7 14 )  ( + T8 33 ) ) ( <= ( + T8 96 )( + T7 7 ) ) )
(or ( <= ( + T7 63 )  ( + T8 96 ) ) ( <= ( + T8 163 )( + T7 14 ) ) )
(or ( <= ( + T7 134 )  ( + T8 163 ) ) ( <= ( + T8 193 )( + T7 63 ) ) )
(or ( <= ( + T7 153 )  ( + T8 193 ) ) ( <= ( + T8 242 )( + T7 134 ) ) )
(or ( <= ( + T7 234 )  ( + T8 242 ) ) ( <= ( + T8 254 )( + T7 153 ) ) )
(or ( <= ( + T7 298 )  ( + T8 254 ) ) ( <= ( + T8 288 )( + T7 234 ) ) )
(or ( <= ( + T7 397 )  ( + T8 288 ) ) ( <= ( + T8 383 )( + T7 298 ) ) )
(or ( <= ( + T7 450 )  ( + T8 383 ) ) ( <= ( + T8 435 )( + T7 397 ) ) )
(or ( <= ( + T7 542 )  ( + T8 435 ) ) ( <= ( + T8 474 )( + T7 450 ) ) )
( <= ( + T1 494 ) Z)
( <= ( + T2 219 ) Z)
( <= ( + T3 423 ) Z)
( <= ( + T4 503 ) Z)
( <= ( + T5 607 ) Z)
( <= ( + T6 473 ) Z)
( <= ( + T7 542 ) Z)
( <= ( + T8 474 ) Z)
( >= T1 0 )
( >= T2 0 )
( >= T3 0 )
( >= T4 0 )
( >= T5 0 )
( >= T6 0 )
( >= T7 0 )
( >= T8 0 )
) )
)(=> $phi $goal))))